NAME : gaussian_missing_edges_with_de_nei2_nei3_random115.8164.tour
COMMENT : Length = 8164
COMMENT : Found by LKH [Keld Helsgaun] Fri Jul 12 17:14:34 2024
TYPE : TOUR
DIMENSION : 115
TOUR_SECTION
1
13
44
18
6
73
51
58
25
38
27
80
60
92
70
35
52
61
26
33
28
2
24
79
69
8
46
77
100
75
98
45
5
97
104
4
57
85
95
107
29
64
66
84
59
111
10
115
89
72
22
90
91
108
37
93
49
23
102
113
67
47
50
30
65
31
12
68
62
20
74
112
21
48
94
40
15
88
41
103
36
63
87
43
53
76
9
11
42
106
105
32
83
114
81
110
19
96
82
71
17
3
101
99
16
39
54
86
78
7
109
14
56
34
55
-1
EOF
